NAME          2AP05-25
ROWS
 L  R0001
 L  R0002
 L  R0003
 L  R0004
 L  R0005
 L  R0006
 L  R0007
 L  R0008
 L  R0009
 L  R0010
 L  R0011
 L  R0012
 L  R0013
 L  R0014
 L  R0015
 L  R0016
 L  R0017
 L  R0018
 L  R0019
 L  R0020
 N  R0021
COLUMNS
    INT1      'MARKER'                 'INTORG'
    C0001     R0001     1
    C0001     R0002     -1
    C0001     R0011     1
    C0001     R0012     -1
    C0001     R0021     19
    C0002     R0001     1
    C0002     R0002     -1
    C0002     R0013     1
    C0002     R0014     -1
    C0002     R0021     1
    C0003     R0001     1
    C0003     R0002     -1
    C0003     R0016     -1
    C0003     R0021     15
    C0004     R0001     1
    C0004     R0002     -1
    C0004     R0017     1
    C0004     R0018     -1
    C0004     R0021     5
    C0005     R0001     1
    C0005     R0002     -1
    C0005     R0015     1
    C0005     R0019     1
    C0005     R0020     -1
    C0005     R0021     18
    C0006     R0003     1
    C0006     R0004     -1
    C0006     R0011     1
    C0006     R0012     -1
    C0006     R0021     18
    C0007     R0003     1
    C0007     R0004     -1
    C0007     R0013     1
    C0007     R0014     -1
    C0007     R0021     2
    C0008     R0003     1
    C0008     R0004     -1
    C0008     R0015     1
    C0008     R0016     -1
    C0008     R0021     4
    C0009     R0003     1
    C0009     R0004     -1
    C0009     R0017     1
    C0009     R0018     -1
    C0009     R0021     14
    C0010     R0003     1
    C0010     R0004     -1
    C0010     R0019     1
    C0010     R0020     -1
    C0010     R0021     1
    C0011     R0005     1
    C0011     R0006     -1
    C0011     R0011     1
    C0011     R0012     -1
    C0011     R0021     9
    C0012     R0005     1
    C0012     R0006     -1
    C0012     R0013     1
    C0012     R0014     -1
    C0012     R0021     12
    C0013     R0005     1
    C0013     R0006     -1
    C0013     R0015     1
    C0013     R0016     -1
    C0013     R0021     4
    C0014     R0005     1
    C0014     R0006     -1
    C0014     R0017     1
    C0014     R0018     -1
    C0014     R0021     15
    C0015     R0005     1
    C0015     R0006     -1
    C0015     R0019     1
    C0015     R0020     -1
    C0015     R0021     5
    C0016     R0007     1
    C0016     R0008     -1
    C0016     R0011     1
    C0016     R0012     -1
    C0016     R0021     9
    C0017     R0007     1
    C0017     R0008     -1
    C0017     R0013     1
    C0017     R0014     -1
    C0017     R0021     5
    C0018     R0007     1
    C0018     R0008     -1
    C0018     R0015     1
    C0018     R0016     -1
    C0018     R0021     10
    C0019     R0007     1
    C0019     R0008     -1
    C0019     R0017     1
    C0019     R0018     -1
    C0019     R0021     5
    C0020     R0007     1
    C0020     R0008     -1
    C0020     R0019     1
    C0020     R0020     -1
    C0020     R0021     9
    C0021     R0009     1
    C0021     R0010     -1
    C0021     R0011     1
    C0021     R0012     -1
    C0021     R0021     4
    C0022     R0009     1
    C0022     R0010     -1
    C0022     R0013     1
    C0022     R0014     -1
    C0022     R0021     2
    C0023     R0009     1
    C0023     R0010     -1
    C0023     R0015     1
    C0023     R0016     -1
    C0023     R0021     18
    C0024     R0009     1
    C0024     R0010     -1
    C0024     R0017     1
    C0024     R0018     -1
    C0024     R0021     16
    C0025     R0009     1
    C0025     R0010     -1
    C0025     R0019     1
    C0025     R0020     -1
    C0025     R0021     4
    INT1END   'MARKER'                 'INTEND'
RHS
    B         R0001     1
    B         R0002     -1
    B         R0003     1
    B         R0004     -1
    B         R0005     1
    B         R0006     -1
    B         R0007     1
    B         R0008     -1
    B         R0009     1
    B         R0010     -1
    B         R0011     1
    B         R0012     -1
    B         R0013     1
    B         R0014     -1
    B         R0015     1
    B         R0016     -1
    B         R0017     1
    B         R0018     -1
    B         R0019     1
    B         R0020     1
BOUNDS
 UP BOUND     C0001     1
 UP BOUND     C0002     1
 UP BOUND     C0003     1
 UP BOUND     C0004     1
 UP BOUND     C0005     1
 UP BOUND     C0006     1
 UP BOUND     C0007     1
 UP BOUND     C0008     1
 UP BOUND     C0009     1
 UP BOUND     C0010     1
 UP BOUND     C0011     1
 UP BOUND     C0012     1
 UP BOUND     C0013     1
 UP BOUND     C0014     1
 UP BOUND     C0015     1
 UP BOUND     C0016     1
 UP BOUND     C0017     1
 UP BOUND     C0018     1
 UP BOUND     C0019     1
 UP BOUND     C0020     1
 UP BOUND     C0021     1
 UP BOUND     C0022     1
 UP BOUND     C0023     1
 UP BOUND     C0024     1
 UP BOUND     C0025     1
ENDATA
